c User generated cnf file
p cnf 10 53
5 2 -9 0 
5 9 -10 0 
-9 10 8 0 
-8 2 8 0 
9 -7 1 0 
5 1 -4 0 
-7 10 6 0 
-6 10 1 0 
3 3 -9 0 
5 -9 1 0 
5 -6 10 0 
4 7 -1 0 
2 -2 7 0 
10 -10 2 0 
-6 7 2 0 
8 -10 5 0 
2 -9 8 0 
1 5 -6 0 
-10 7 5 0 
4 7 -2 0 
1 -1 4 0 
8 3 -1 0 
-10 1 6 0 
-6 5 3 0 
7 9 -8 0 
-10 9 10 0 
9 -7 10 0 
7 1 -9 0 
-4 9 10 0 
-8 2 8 0 
4 4 -7 0 
5 9 -1 0 
2 1 -2 0 
-5 9 9 0 
-6 10 6 0 
-10 2 8 0 
6 -5 9 0 
3 9 -1 0 
4 3 -9 0 
3 6 -2 0 
-3 4 6 0 
3 -2 3 0 
6 4 -6 0 
4 -4 5 0 
6 7 -5 0 
8 1 -9 0 
-1 1 8 0 
3 -9 5 0 
8 10 -5 0 
3 5 -5 0 
-3 6 4 0 
-7 2 9 0 
1 -2 1 0 
